<?xml version = "1.0" standalone="yes"?>
<!-- This file has been generated by DOcplex version 2.23.222  -->
<CPLEXSolution version="1.0">
 <header
   problemName="CVRP"
   objectiveValue="15027.2"
  />
 <variables>
  <variable name="x_0_4" index="3" value="1.00000"/>
  <variable name="x_0_5" index="4" value="1.00000"/>
  <variable name="x_0_8" index="7" value="1.00000"/>
  <variable name="x_0_12" index="11" value="1.00000"/>
  <variable name="x_0_13" index="12" value="1.00000"/>
  <variable name="x_0_17" index="16" value="1.00000"/>
  <variable name="x_0_18" index="17" value="1.00000"/>
  <variable name="x_0_19" index="18" value="1.00000"/>
  <variable name="x_0_20" index="19" value="1.00000"/>
  <variable name="x_0_23" index="22" value="1.00000"/>
  <variable name="x_0_24" index="23" value="1.00000"/>
  <variable name="x_1_0" index="24" value="1.00000"/>
  <variable name="x_2_6" index="53" value="1.00000"/>
  <variable name="x_3_0" index="72" value="1.00000"/>
  <variable name="x_4_0" index="96" value="1.00000"/>
  <variable name="x_5_0" index="120" value="1.00000"/>
  <variable name="x_6_0" index="144" value="1.00000"/>
  <variable name="x_7_0" index="168" value="1.00000"/>
  <variable name="x_8_11" index="202" value="1.00000"/>
  <variable name="x_9_3" index="219" value="1.00000"/>
  <variable name="x_10_1" index="241" value="1.00000"/>
  <variable name="x_11_22" index="285" value="1.00000"/>
  <variable name="x_12_7" index="295" value="1.00000"/>
  <variable name="x_13_14" index="325" value="1.00000"/>
  <variable name="x_14_0" index="336" value="1.00000"/>
  <variable name="x_15_0" index="360" value="1.00000"/>
  <variable name="x_16_0" index="384" value="1.00000"/>
  <variable name="x_17_0" index="408" value="1.00000"/>
  <variable name="x_18_16" index="448" value="1.00000"/>
  <variable name="x_19_2" index="458" value="1.00000"/>
  <variable name="x_20_9" index="489" value="1.00000"/>
  <variable name="x_21_15" index="519" value="1.00000"/>
  <variable name="x_22_0" index="528" value="1.00000"/>
  <variable name="x_23_10" index="562" value="1.00000"/>
  <variable name="x_24_21" index="597" value="1.00000"/>
  <variable name="u_1" index="600" value="57.00000"/>
  <variable name="u_2" index="601" value="48.00000"/>
  <variable name="u_3" index="602" value="57.00000"/>
  <variable name="u_4" index="603" value="57.00000"/>
  <variable name="u_5" index="604" value="56.00000"/>
  <variable name="u_6" index="605" value="56.00000"/>
  <variable name="u_7" index="606" value="41.00000"/>
  <variable name="u_8" index="607" value="38.00000"/>
  <variable name="u_9" index="608" value="50.00000"/>
  <variable name="u_10" index="609" value="52.00000"/>
  <variable name="u_11" index="610" value="40.00000"/>
  <variable name="u_12" index="611" value="27.00000"/>
  <variable name="u_13" index="612" value="48.00000"/>
  <variable name="u_14" index="613" value="57.00000"/>
  <variable name="u_15" index="614" value="57.00000"/>
  <variable name="u_16" index="615" value="57.00000"/>
  <variable name="u_17" index="616" value="44.00000"/>
  <variable name="u_18" index="617" value="33.00000"/>
  <variable name="u_19" index="618" value="2.00000"/>
  <variable name="u_20" index="619" value="26.00000"/>
  <variable name="u_21" index="620" value="35.00000"/>
  <variable name="u_22" index="621" value="57.00000"/>
  <variable name="u_23" index="622" value="36.00000"/>
  <variable name="u_24" index="623" value="30.00000"/>
 </variables>
</CPLEXSolution>
